 Entering Gaussian System, Link 0=g16
 Initial command:
 /home/pgao/software/g16/l1.exe "/home/pgao/scratch/Gau-274909.inp" -scrdir="/home/pgao/scratch/"
 Default is to use a total of  12 processors:
                               12 via shared-memory
                                1 via Linda
 Entering Link 1 = /home/pgao/software/g16/l1.exe PID=    274910.
  
 Copyright (c) 1988,1990,1992,1993,1995,1998,2003,2009,2016,
            Gaussian, Inc.  All Rights Reserved.
  
 This is part of the Gaussian(R) 16 program.  It is based on
 the Gaussian(R) 09 system (copyright 2009, Gaussian, Inc.),
 the Gaussian(R) 03 system (copyright 2003, Gaussian, Inc.),
 the Gaussian(R) 98 system (copyright 1998, Gaussian, Inc.),
 the Gaussian(R) 94 system (copyright 1995, Gaussian, Inc.),
 the Gaussian 92(TM) system (copyright 1992, Gaussian, Inc.),
 the Gaussian 90(TM) system (copyright 1990, Gaussian, Inc.),
 the Gaussian 88(TM) system (copyright 1988, Gaussian, Inc.),
 the Gaussian 86(TM) system (copyright 1986, Carnegie Mellon
 University), and the Gaussian 82(TM) system (copyright 1983,
 Carnegie Mellon University). Gaussian is a federally registered
 trademark of Gaussian, Inc.
  
 This software contains proprietary and confidential information,
 including trade secrets, belonging to Gaussian, Inc.
  
 This software is provided under written license and may be
 used, copied, transmitted, or stored only in accord with that
 written license.
  
 The following legend is applicable only to US Government
 contracts under FAR:
  
                    RESTRICTED RIGHTS LEGEND
  
 Use, reproduction and disclosure by the US Government is
 subject to restrictions as set forth in subparagraphs (a)
 and (c) of the Commercial Computer Software - Restricted
 Rights clause in FAR 52.227-19.
  
 Gaussian, Inc.
 340 Quinnipiac St., Bldg. 40, Wallingford CT 06492
  
  
 ---------------------------------------------------------------
 Warning -- This program may not be used in any manner that
 competes with the business of Gaussian, Inc. or will provide
 assistance to any competitor of Gaussian, Inc.  The licensee
 of this program is prohibited from giving any competitor of
 Gaussian, Inc. access to this program.  By using this program,
 the user acknowledges that Gaussian, Inc. is engaged in the
 business of creating and licensing software in the field of
 computational chemistry and represents and warrants to the
 licensee that it is not a competitor of Gaussian, Inc. and that
 it will not use this program in any manner prohibited above.
 ---------------------------------------------------------------
  

 Cite this work as:
 Gaussian 16, Revision A.03,
 M. J. Frisch, G. W. Trucks, H. B. Schlegel, G. E. Scuseria, 
 M. A. Robb, J. R. Cheeseman, G. Scalmani, V. Barone, 
 G. A. Petersson, H. Nakatsuji, X. Li, M. Caricato, A. V. Marenich, 
 J. Bloino, B. G. Janesko, R. Gomperts, B. Mennucci, H. P. Hratchian, 
 J. V. Ortiz, A. F. Izmaylov, J. L. Sonnenberg, D. Williams-Young, 
 F. Ding, F. Lipparini, F. Egidi, J. Goings, B. Peng, A. Petrone, 
 T. Henderson, D. Ranasinghe, V. G. Zakrzewski, J. Gao, N. Rega, 
 G. Zheng, W. Liang, M. Hada, M. Ehara, K. Toyota, R. Fukuda, 
 J. Hasegawa, M. Ishida, T. Nakajima, Y. Honda, O. Kitao, H. Nakai, 
 T. Vreven, K. Throssell, J. A. Montgomery, Jr., J. E. Peralta, 
 F. Ogliaro, M. J. Bearpark, J. J. Heyd, E. N. Brothers, K. N. Kudin, 
 V. N. Staroverov, T. A. Keith, R. Kobayashi, J. Normand, 
 K. Raghavachari, A. P. Rendell, J. C. Burant, S. S. Iyengar, 
 J. Tomasi, M. Cossi, J. M. Millam, M. Klene, C. Adamo, R. Cammi, 
 J. W. Ochterski, R. L. Martin, K. Morokuma, O. Farkas, 
 J. B. Foresman, and D. J. Fox, Gaussian, Inc., Wallingford CT, 2016.
 
 ******************************************
 Gaussian 16:  ES64L-G16RevA.03 25-Dec-2016
                28-Dec-2025 
 ******************************************
 %chk=water_ccsd.chk
 %nproc=1
 Will use up to    1 processors via shared memory.
 %mem=16GB
 ----------------------------------------------------------------------
 #p External="CentralExt mrcc 16GB READ 4 1 preamble.dat ending.dat par
 all 6" force
 ----------------------------------------------------------------------
 1/10=10,18=10,30=1,38=1,172=1/1;
 2/12=2,17=6,18=5,29=2,40=1/2;
 3/11=9,25=1,30=1,41=9900000,43=2,71=1/1;
 4/20=17,22=1,24=3,113=1,114=1/2;
 6/7=2,8=2,9=2,10=2/1;
 7/7=1,44=-1/16;
 99/12=1/99;
 Leave Link    1 at Sun Dec 28 03:38:50 2025, MaxMem=  2147483648 cpu:               0.1 elap:               0.0
 (Enter /home/pgao/software/g16/l101.exe)
 -------------------
 Water CCSD gradient
 -------------------
 Symbolic Z-matrix:
 Charge =  0 Multiplicity = 1
 O                     0.        0.        0.11779 
 H                     0.        0.75695  -0.47116 
 H                     0.       -0.75695  -0.47116 
 
 ITRead=  0  0  0
 MicOpt= -1 -1 -1
 NAtoms=      3 NQM=        3 NQMF=       0 NMMI=      0 NMMIF=      0
                NMic=       0 NMicF=      0.
                    Isotopes and Nuclear Properties:
 (Nuclear quadrupole moments (NQMom) in fm**2, nuclear magnetic moments (NMagM)
  in nuclear magnetons)

  Atom         1           2           3
 IAtWgt=          16           1           1
 AtmWgt=  15.9949146   1.0078250   1.0078250
 NucSpn=           0           1           1
 AtZEff=  -0.0000000  -0.0000000  -0.0000000
 NQMom=    0.0000000   0.0000000   0.0000000
 NMagM=    0.0000000   2.7928460   2.7928460
 AtZNuc=   8.0000000   1.0000000   1.0000000
 Leave Link  101 at Sun Dec 28 03:38:50 2025, MaxMem=  2147483648 cpu:               0.2 elap:               0.2
 (Enter /home/pgao/software/g16/l202.exe)
 ---------------------------------------------------------------------------------------------------
                            Z-MATRIX (ANGSTROMS AND DEGREES)
   CD    Cent   Atom    N1       Length/X        N2       Alpha/Y        N3        Beta/Z          J
 ---------------------------------------------------------------------------------------------------
      1      1  O        0   0.000000          0.000000          0.117790
      2      2  H        0   0.000000          0.756950         -0.471160
      3      3  H        0   0.000000         -0.756950         -0.471160
 ---------------------------------------------------------------------------------------------------
                         Z-Matrix orientation:                         
 ---------------------------------------------------------------------
 Center     Atomic      Atomic             Coordinates (Angstroms)
 Number     Number       Type             X           Y           Z
 ---------------------------------------------------------------------
      1          8           0        0.000000    0.000000    0.117790
      2          1           0        0.000000    0.756950   -0.471160
      3          1           0        0.000000   -0.756950   -0.471160
 ---------------------------------------------------------------------
                    Distance matrix (angstroms):
                    1          2          3
     1  O    0.000000
     2  H    0.959080   0.000000
     3  H    0.959080   1.513900   0.000000
 Stoichiometry    H2O
 Framework group  C2V[C2(O),SGV(H2)]
 Deg. of freedom     2
 Full point group                 C2V     NOp   4
 Largest Abelian subgroup         C2V     NOp   4
 Largest concise Abelian subgroup C2      NOp   2
                         Standard orientation:                         
 ---------------------------------------------------------------------
 Center     Atomic      Atomic             Coordinates (Angstroms)
 Number     Number       Type             X           Y           Z
 ---------------------------------------------------------------------
      1          8           0        0.000000   -0.000000    0.117790
      2          1           0        0.000000    0.756950   -0.471160
      3          1           0       -0.000000   -0.756950   -0.471160
 ---------------------------------------------------------------------
 Rotational constants (GHZ):         813.9366644         437.5902876         284.5889803
 Leave Link  202 at Sun Dec 28 03:38:50 2025, MaxMem=  2147483648 cpu:               0.0 elap:               0.0
 (Enter /home/pgao/software/g16/l301.exe)
 Standard basis: STO-3G (5D, 7F)
 Ernie: Thresh=  0.10000D-02 Tol=  0.10000D-05 Strict=F.
 There are     4 symmetry adapted cartesian basis functions of A1  symmetry.
 There are     0 symmetry adapted cartesian basis functions of A2  symmetry.
 There are     1 symmetry adapted cartesian basis functions of B1  symmetry.
 There are     2 symmetry adapted cartesian basis functions of B2  symmetry.
 There are     4 symmetry adapted basis functions of A1  symmetry.
 There are     0 symmetry adapted basis functions of A2  symmetry.
 There are     1 symmetry adapted basis functions of B1  symmetry.
 There are     2 symmetry adapted basis functions of B2  symmetry.
     7 basis functions,    21 primitive gaussians,     7 cartesian basis functions
     5 alpha electrons        5 beta electrons
       nuclear repulsion energy         9.1776215096 Hartrees.
 IExCor=    0 DFT=F Ex=HF Corr=None ExCW=0 ScaHFX=  1.000000
 ScaDFX=  1.000000  1.000000  1.000000  1.000000 ScalE2=  1.000000  1.000000
 IRadAn=      5 IRanWt=     -1 IRanGd=            0 ICorTp=0 IEmpDi=  4
 NAtoms=    3 NActive=    3 NUniq=    2 SFac= 2.25D+00 NAtFMM=   60 NAOKFM=F Big=F
 Integral buffers will be    131072 words long.
 Raffenetti 1 integral format.
 Two-electron integral symmetry is turned on.
 Leave Link  301 at Sun Dec 28 03:38:50 2025, MaxMem=  2147483648 cpu:               0.0 elap:               0.0
 (Enter /home/pgao/software/g16/l402.exe)
 External calculation of energy and first derivatives.
 Running external command "CentralExt mrcc 16GB READ 4 1 preamble.dat ending.dat parall 6 R"
         input file       "/home/pgao/scratch/Gau-274910.EIn"
         output file      "/home/pgao/scratch/Gau-274910.EOu"
         message file     "/home/pgao/scratch/Gau-274910.EMs"
         fchk file        "/home/pgao/scratch/Gau-274910.EFC"
         mat. el file     "/home/pgao/scratch/Gau-274910.EUF"

================================================================================
CHECKING FOR MIXED ANALYTICAL/NUMERICAL GRADIENT MODE
================================================================================
Analyzing sections in /home/pgao/mrcc_external/test2/preamble.dat for gradient mode (comment='!')
  Found section marker: '!SECTION1' at line 6
    Warning: Could not parse dens value at line 10: '# Numerical gradient (no dens=2)'
  Found section marker: '!SECTION2' at line 12
    Section '!SECTION2': dens=2 (analytical=True) at line 17
  Found section marker: '!SECTION3' at line 19
    Section '!SECTION3': dens=2 (analytical=True) at line 24

--- Section Analysis Summary ---
  default: NUMERICAL (dens=0, lines=2)
  !SECTION1: NUMERICAL (dens=0, lines=5)
  !SECTION2: ANALYTICAL (dens=2, lines=6)
  !SECTION3: ANALYTICAL (dens=2, lines=5)

Total sections: 4
Analytical sections (2): ['!SECTION2', '!SECTION3']
Numerical sections (2): ['default', '!SECTION1']
--------------------------------

Mode Detection Results:
  OptFlag (gradient requested): 1
  Has analytical sections: True
  Has numerical sections: True
  Mixed mode activated: True
  All analytical mode: False
  All numerical mode: False
================================================================================

FAKE_FREQ CONVERSION: O Bohr=['0.0', '-0.0', '0.222590840213'] -> Angstrom=[0.0, -0.0, 0.11778999999647066]
FAKE_FREQ CONVERSION: H Bohr=['0.0', '1.43042818999', '-0.89036336085'] -> Angstrom=[0.0, 0.7569499999759347, -0.47115999998482433]
FAKE_FREQ CONVERSION: H Bohr=['-0.0', '-1.43042818999', '-0.89036336085'] -> Angstrom=[-0.0, -0.7569499999759347, -0.47115999998482433]
Checking original directory for Gaussian input: /home/pgao/mrcc_external/test2
Found Gaussian input file with External keyword: /home/pgao/mrcc_external/test2/water_ccsd.gjf
GEOMETRY CONVERSION: Task 'central' - Converted from Bohr to Angstrom
  First atom coordinates: Bohr = [0.         0.         0.22259084], Angstrom = [0.      0.      0.11779]
GEOMETRY CONVERSION: Task 'atom_1_ixyz_1_up' - Converted from Bohr to Angstrom
  First atom coordinates: Bohr = [0.00188973 0.         0.22259084], Angstrom = [0.001   0.      0.11779]
GEOMETRY CONVERSION: Task 'atom_1_ixyz_2_up' - Converted from Bohr to Angstrom
  First atom coordinates: Bohr = [0.         0.00188973 0.22259084], Angstrom = [0.      0.001   0.11779]
GEOMETRY CONVERSION: Task 'atom_1_ixyz_3_up' - Converted from Bohr to Angstrom
  First atom coordinates: Bohr = [0.         0.         0.22448057], Angstrom = [0.      0.      0.11879]
GEOMETRY CONVERSION: Task 'atom_1_ixyz_3_down' - Converted from Bohr to Angstrom
  First atom coordinates: Bohr = [0.         0.         0.22070111], Angstrom = [0.      0.      0.11679]
GEOMETRY CONVERSION: Task 'atom_2_ixyz_1_up' - Converted from Bohr to Angstrom
  First atom coordinates: Bohr = [0.         0.         0.22259084], Angstrom = [0.      0.      0.11779]
GEOMETRY CONVERSION: Task 'atom_2_ixyz_2_up' - Converted from Bohr to Angstrom
  First atom coordinates: Bohr = [0.         0.         0.22259084], Angstrom = [0.      0.      0.11779]
GEOMETRY CONVERSION: Task 'atom_2_ixyz_2_down' - Converted from Bohr to Angstrom
  First atom coordinates: Bohr = [0.         0.         0.22259084], Angstrom = [0.      0.      0.11779]
GEOMETRY CONVERSION: Task 'atom_2_ixyz_3_up' - Converted from Bohr to Angstrom
  First atom coordinates: Bohr = [0.         0.         0.22259084], Angstrom = [0.      0.      0.11779]
GEOMETRY CONVERSION: Task 'atom_2_ixyz_3_down' - Converted from Bohr to Angstrom
  First atom coordinates: Bohr = [0.         0.         0.22259084], Angstrom = [0.      0.      0.11779]
Extracted Input orientation (3 atoms)
Extracted Original coordinates (3 atoms)
DEBUG: Preserved fake frequency log as FAKE_FREQ/fake_freq_1.log
DEBUG: Expected atoms: 3
DEBUG: Task central: 3 atoms
DEBUG: Task atom_1_ixyz_3_up: 3 atoms
DEBUG: Task atom_1_ixyz_3_down: 3 atoms
DEBUG: Task atom_2_ixyz_2_up: 3 atoms
DEBUG: Task atom_2_ixyz_2_down: 3 atoms
DEBUG: Task atom_2_ixyz_3_up: 3 atoms
DEBUG: Task atom_2_ixyz_3_down: 3 atoms
DEBUG: All geometries have correct atom count (3)

================================================================================
MIXED/ANALYTICAL MODE: Splitting preamble and running workflows
================================================================================
Parsing scheme and formula from /home/pgao/mrcc_external/test2/preamble.dat (comment='!')
  Entered !scheme section at line 2.
    Line 3: Found coefficient: 1.0
    Line 3: Found coefficient: -1.0
    Line 3: Found coefficient: 1.0
  Exited !scheme section at line 4.
Finished parsing scheme: [('coeff', 1.0), ('coeff', -1.0), ('coeff', 1.0)]
Parsed 3 operations from scheme

--- Creating Reduced Schemes ---
Original coefficients: [1.0, -1.0, 1.0]
Original formula: None
Analytical section indices (non-default): [2, 3]
Numerical section indices (non-default): [1]
Analytical coefficients: [-1.0, 1.0]
Numerical coefficients: [1.0]

--- Writing Analytical Preamble to /home/pgao/mrcc_external/test2/SPLIT_PREAMBLES/preamble_analytical.dat ---
  Wrote 2 analytical section(s)
  Analytical indices (original): [2, 3]
  Sections renumbered: 1 to 2
  Reduced scheme: [-1.0, 1.0]

--- Writing Numerical Preamble to /home/pgao/mrcc_external/test2/SPLIT_PREAMBLES/preamble_numerical.dat ---
  Wrote 1 numerical section(s)
  Numerical indices (original): [1]
  Sections renumbered: 1 to 1
  Reduced scheme: [1.0]
--- Preamble Splitting Complete ---


Split preambles created:
  Analytical: /home/pgao/mrcc_external/test2/SPLIT_PREAMBLES/preamble_analytical.dat
  Numerical: /home/pgao/mrcc_external/test2/SPLIT_PREAMBLES/preamble_numerical.dat
  Analytical indices: [2, 3]
  Numerical indices: [1]

================================================================================
RUNNING ANALYTICAL GRADIENT WORKFLOW (2 sections)
================================================================================
Created iteration directory: /home/pgao/mrcc_external/test2/Iterations/AN_Iteration_1
INFO: This is AN iteration number 1
Resource adjustment for analytical:
  Original: mem=16GB, omp=4
  Adjusted: mem=112GB, omp=10
INFO: Running analytical gradient calculation with 2 section(s)
ANALYTICAL: No global GENBAS file found, searching for section-specific basis files...
ANALYTICAL: No section-specific basis files (basis_*) found either
ANALYTICAL: Parsed 3 atoms from geometry
ANALYTICAL: Wrote input file with OptFlag=1 to /home/pgao/mrcc_external/test2/Iterations/AN_Iteration_1/task_analytical_central/Gau-analytical.EIn
ANALYTICAL: Executing /home/pgao/mrcc_external/ExternalMRCC-public/Executables/MRCC_ext with args: ['112GB', 'READ', '10', '1', 'preamble_analytical.dat', 'ending.dat', 'R', 'Gau-analytical.EIn', 'gradient_output.dat']
ANALYTICAL: External program completed successfully
ANALYTICAL: Output (last 200 chars): ****************************************************************
SCRIPT EXECUTION FINISHED
*****************************************************************************
MRCC External Script Finished.

ANALYTICAL: Parsed 2 gradient(s) from output
ANALYTICAL: Energy = -0.090141149872, Gradient shape = (3, 3)

================================================================================
RUNNING NUMERICAL GRADIENT WORKFLOW (1 sections)
================================================================================
Created iteration directory: /home/pgao/mrcc_external/test2/Iterations/NUM_Iteration_1
INFO: This is NUM iteration number 1
INFO: Numerical gradient using preamble: /home/pgao/mrcc_external/test2/SPLIT_PREAMBLES/preamble_numerical.dat
INFO: Running numerical gradient calculation in iteration 1
Running parallel energy calculations with 6 threads
TASK SUBMISSION: Submitting 7 tasks
  - Task: central
  - Task: atom_1_ixyz_3_up
  - Task: atom_1_ixyz_3_down
  - Task: atom_2_ixyz_2_up
  - Task: atom_2_ixyz_2_down
  - Task: atom_2_ixyz_3_up
  - Task: atom_2_ixyz_3_down
PARALLEL EXECUTION: Starting with 6 workers
PARALLEL EXECUTION: Total tasks to execute: 7
PARALLEL EXECUTION: Submitted tasks: ['atom_1_ixyz_3_down', 'atom_1_ixyz_3_up', 'atom_2_ixyz_2_down', 'atom_2_ixyz_2_up', 'atom_2_ixyz_3_down', 'atom_2_ixyz_3_up', 'central']
PARALLEL EXECUTION: Submitted 7 futures to executor
MRCC SETUP: No global GENBAS file found in /home/pgao/mrcc_external/test2 for task central
MRCC SETUP: Searching for section-specific basis files (basis_1, basis_2, etc.)...
MRCC SETUP: No global GENBAS file found in /home/pgao/mrcc_external/test2 for task atom_1_ixyz_3_down
MRCC SETUP: Searching for section-specific basis files (basis_1, basis_2, etc.)...
MRCC SETUP: No global GENBAS file found in /home/pgao/mrcc_external/test2 for task atom_2_ixyz_2_up
MRCC SETUP: Searching for section-specific basis files (basis_1, basis_2, etc.)...
MRCC SETUP: No global GENBAS file found in /home/pgao/mrcc_external/test2 for task atom_1_ixyz_3_up
MRCC SETUP: Searching for section-specific basis files (basis_1, basis_2, etc.)...
MRCC SETUP: No global GENBAS file found in /home/pgao/mrcc_external/test2 for task atom_2_ixyz_2_down
MRCC SETUP: Searching for section-specific basis files (basis_1, basis_2, etc.)...
MRCC SETUP: No section-specific basis files (basis_*) found either
MRCC SETUP: If using custom basis sets, ensure either:
MRCC SETUP:   1. GENBAS file exists in /home/pgao/mrcc_external/test2, OR
MRCC SETUP:   2. basis_1, basis_2, etc. files exist in /home/pgao/mrcc_external/test2
MRCC SETUP: No global GENBAS file found in /home/pgao/mrcc_external/test2 for task atom_2_ixyz_3_up
MRCC SETUP: Searching for section-specific basis files (basis_1, basis_2, etc.)...
MRCC SETUP: No section-specific basis files (basis_*) found either
MRCC SETUP: If using custom basis sets, ensure either:
MRCC SETUP:   1. GENBAS file exists in /home/pgao/mrcc_external/test2, OR
MRCC SETUP:   2. basis_1, basis_2, etc. files exist in /home/pgao/mrcc_external/test2
MRCC SETUP: No section-specific basis files (basis_*) found either
MRCC SETUP: If using custom basis sets, ensure either:
MRCC SETUP:   1. GENBAS file exists in /home/pgao/mrcc_external/test2, OR
MRCC SETUP:   2. basis_1, basis_2, etc. files exist in /home/pgao/mrcc_external/test2
MRCC SETUP: No section-specific basis files (basis_*) found either
MRCC SETUP: If using custom basis sets, ensure either:
MRCC SETUP:   1. GENBAS file exists in /home/pgao/mrcc_external/test2, OR
MRCC SETUP:   2. basis_1, basis_2, etc. files exist in /home/pgao/mrcc_external/test2
MRCC SETUP: No section-specific basis files (basis_*) found either
MRCC SETUP: If using custom basis sets, ensure either:
MRCC SETUP:   1. GENBAS file exists in /home/pgao/mrcc_external/test2, OR
MRCC SETUP:   2. basis_1, basis_2, etc. files exist in /home/pgao/mrcc_external/test2
UNIT CONVERSION: Task 'atom_2_ixyz_2_up' - Wrote .EIn file in Bohr
  First atom: Angstrom = [0.      0.      0.11779], Bohr = [0.         0.         0.22259084]
THREAD-47407944365824: Starting execution for task 'atom_2_ixyz_2_up'
THREAD-47407944365824: Task directory: /home/pgao/mrcc_external/test2/Iterations/NUM_Iteration_1/task_atom_2_ixyz_2_up
THREAD-47407944365824: Input file: /home/pgao/mrcc_external/test2/Iterations/NUM_Iteration_1/task_atom_2_ixyz_2_up/Gau-atom_2_ixyz_2_up.EIn
UNIT CONVERSION: Task 'atom_1_ixyz_3_up' - Wrote .EIn file in Bohr
  First atom: Angstrom = [0.      0.      0.11879], Bohr = [0.         0.         0.22448057]
THREAD-47407940163328: Starting execution for task 'atom_1_ixyz_3_up'
THREAD-47407940163328: Task directory: /home/pgao/mrcc_external/test2/Iterations/NUM_Iteration_1/task_atom_1_ixyz_3_up
THREAD-47407940163328: Input file: /home/pgao/mrcc_external/test2/Iterations/NUM_Iteration_1/task_atom_1_ixyz_3_up/Gau-atom_1_ixyz_3_up.EIn
UNIT CONVERSION: Task 'atom_1_ixyz_3_down' - Wrote .EIn file in Bohr
  First atom: Angstrom = [0.      0.      0.11679], Bohr = [0.         0.         0.22070111]
THREAD-47407942264576: Starting execution for task 'atom_1_ixyz_3_down'
THREAD-47407942264576: Task directory: /home/pgao/mrcc_external/test2/Iterations/NUM_Iteration_1/task_atom_1_ixyz_3_down
THREAD-47407942264576: Input file: /home/pgao/mrcc_external/test2/Iterations/NUM_Iteration_1/task_atom_1_ixyz_3_down/Gau-atom_1_ixyz_3_down.EIn
UNIT CONVERSION: Task 'central' - Wrote .EIn file in Bohr
  First atom: Angstrom = [0.      0.      0.11779], Bohr = [0.         0.         0.22259084]
THREAD-47407938062080: Starting execution for task 'central'
THREAD-47407938062080: Task directory: /home/pgao/mrcc_external/test2/Iterations/NUM_Iteration_1/task_central
THREAD-47407938062080: Input file: /home/pgao/mrcc_external/test2/Iterations/NUM_Iteration_1/task_central/Gau-central.EIn
THREAD-47407944365824: Original working directory: /home/pgao/mrcc_external/test2
THREAD-47407944365824: Test mode: False
THREAD-47407944365824: Executing command: /home/pgao/intel/oneapi/intelpython/latest/bin/python3 /home/pgao/mrcc_external/ExternalMRCC-public/Executables/MRCC_ext 16GB READ 4 1 preamble.dat ending.dat R Gau-atom_2_ixyz_2_up.EIn energy_output.dat
THREAD-47407944365824: Working directory for subprocess: /home/pgao/mrcc_external/test2/Iterations/NUM_Iteration_1/task_atom_2_ixyz_2_up
UNIT CONVERSION: Task 'atom_2_ixyz_2_down' - Wrote .EIn file in Bohr
  First atom: Angstrom = [0.      0.      0.11779], Bohr = [0.         0.         0.22259084]
THREAD-47407946467072: Starting execution for task 'atom_2_ixyz_2_down'
THREAD-47407946467072: Task directory: /home/pgao/mrcc_external/test2/Iterations/NUM_Iteration_1/task_atom_2_ixyz_2_down
THREAD-47407946467072: Input file: /home/pgao/mrcc_external/test2/Iterations/NUM_Iteration_1/task_atom_2_ixyz_2_down/Gau-atom_2_ixyz_2_down.EIn
THREAD-47407940163328: Original working directory: /home/pgao/mrcc_external/test2
THREAD-47407940163328: Test mode: False
THREAD-47407940163328: Executing command: /home/pgao/intel/oneapi/intelpython/latest/bin/python3 /home/pgao/mrcc_external/ExternalMRCC-public/Executables/MRCC_ext 16GB READ 4 1 preamble.dat ending.dat R Gau-atom_1_ixyz_3_up.EIn energy_output.dat
THREAD-47407940163328: Working directory for subprocess: /home/pgao/mrcc_external/test2/Iterations/NUM_Iteration_1/task_atom_1_ixyz_3_up
THREAD-47407942264576: Original working directory: /home/pgao/mrcc_external/test2
THREAD-47407942264576: Test mode: False
THREAD-47407942264576: Executing command: /home/pgao/intel/oneapi/intelpython/latest/bin/python3 /home/pgao/mrcc_external/ExternalMRCC-public/Executables/MRCC_ext 16GB READ 4 1 preamble.dat ending.dat R Gau-atom_1_ixyz_3_down.EIn energy_output.dat
THREAD-47407942264576: Working directory for subprocess: /home/pgao/mrcc_external/test2/Iterations/NUM_Iteration_1/task_atom_1_ixyz_3_down
MRCC SETUP: No section-specific basis files (basis_*) found either
MRCC SETUP: If using custom basis sets, ensure either:
MRCC SETUP:   1. GENBAS file exists in /home/pgao/mrcc_external/test2, OR
MRCC SETUP:   2. basis_1, basis_2, etc. files exist in /home/pgao/mrcc_external/test2
THREAD-47407946467072: Original working directory: /home/pgao/mrcc_external/test2
THREAD-47407946467072: Test mode: False
THREAD-47407946467072: Executing command: /home/pgao/intel/oneapi/intelpython/latest/bin/python3 /home/pgao/mrcc_external/ExternalMRCC-public/Executables/MRCC_ext 16GB READ 4 1 preamble.dat ending.dat R Gau-atom_2_ixyz_2_down.EIn energy_output.dat
THREAD-47407946467072: Working directory for subprocess: /home/pgao/mrcc_external/test2/Iterations/NUM_Iteration_1/task_atom_2_ixyz_2_down
THREAD-47407938062080: Original working directory: /home/pgao/mrcc_external/test2
THREAD-47407938062080: Test mode: False
THREAD-47407938062080: Executing command: /home/pgao/intel/oneapi/intelpython/latest/bin/python3 /home/pgao/mrcc_external/ExternalMRCC-public/Executables/MRCC_ext 16GB READ 4 1 preamble.dat ending.dat R Gau-central.EIn energy_output.dat
THREAD-47407938062080: Working directory for subprocess: /home/pgao/mrcc_external/test2/Iterations/NUM_Iteration_1/task_central
UNIT CONVERSION: Task 'atom_2_ixyz_3_up' - Wrote .EIn file in Bohr
  First atom: Angstrom = [0.      0.      0.11779], Bohr = [0.         0.         0.22259084]
THREAD-47407948568320: Starting execution for task 'atom_2_ixyz_3_up'
THREAD-47407948568320: Task directory: /home/pgao/mrcc_external/test2/Iterations/NUM_Iteration_1/task_atom_2_ixyz_3_up
THREAD-47407948568320: Input file: /home/pgao/mrcc_external/test2/Iterations/NUM_Iteration_1/task_atom_2_ixyz_3_up/Gau-atom_2_ixyz_3_up.EIn
THREAD-47407948568320: Original working directory: /home/pgao/mrcc_external/test2
THREAD-47407948568320: Test mode: False
THREAD-47407948568320: Executing command: /home/pgao/intel/oneapi/intelpython/latest/bin/python3 /home/pgao/mrcc_external/ExternalMRCC-public/Executables/MRCC_ext 16GB READ 4 1 preamble.dat ending.dat R Gau-atom_2_ixyz_3_up.EIn energy_output.dat
THREAD-47407948568320: Working directory for subprocess: /home/pgao/mrcc_external/test2/Iterations/NUM_Iteration_1/task_atom_2_ixyz_3_up
THREAD-47407944365824: Subprocess completed successfully
THREAD-47407944365824: Subprocess stdout (last 200 chars): ****************************************************************
SCRIPT EXECUTION FINISHED
*****************************************************************************
MRCC External Script Finished.

THREAD-47407944365824: Output file path: /home/pgao/mrcc_external/test2/Iterations/NUM_Iteration_1/task_atom_2_ixyz_2_up/energy_output.dat
THREAD-47407944365824: Already in original directory /home/pgao/mrcc_external/test2
MRCC SETUP: No global GENBAS file found in /home/pgao/mrcc_external/test2 for task atom_2_ixyz_3_down
MRCC SETUP: Searching for section-specific basis files (basis_1, basis_2, etc.)...
MRCC SETUP: No section-specific basis files (basis_*) found either
MRCC SETUP: If using custom basis sets, ensure either:
MRCC SETUP:   1. GENBAS file exists in /home/pgao/mrcc_external/test2, OR
MRCC SETUP:   2. basis_1, basis_2, etc. files exist in /home/pgao/mrcc_external/test2
UNIT CONVERSION: Task 'atom_2_ixyz_3_down' - Wrote .EIn file in Bohr
  First atom: Angstrom = [0.      0.      0.11779], Bohr = [0.         0.         0.22259084]
THREAD-47407944365824: Starting execution for task 'atom_2_ixyz_3_down'
THREAD-47407944365824: Task directory: /home/pgao/mrcc_external/test2/Iterations/NUM_Iteration_1/task_atom_2_ixyz_3_down
THREAD-47407944365824: Input file: /home/pgao/mrcc_external/test2/Iterations/NUM_Iteration_1/task_atom_2_ixyz_3_down/Gau-atom_2_ixyz_3_down.EIn
PARALLEL EXECUTION: Task 'atom_2_ixyz_2_up' completed successfully with energy -76.241106124811
THREAD-47407944365824: Original working directory: /home/pgao/mrcc_external/test2
THREAD-47407944365824: Test mode: False
THREAD-47407944365824: Executing command: /home/pgao/intel/oneapi/intelpython/latest/bin/python3 /home/pgao/mrcc_external/ExternalMRCC-public/Executables/MRCC_ext 16GB READ 4 1 preamble.dat ending.dat R Gau-atom_2_ixyz_3_down.EIn energy_output.dat
THREAD-47407944365824: Working directory for subprocess: /home/pgao/mrcc_external/test2/Iterations/NUM_Iteration_1/task_atom_2_ixyz_3_down
THREAD-47407946467072: Subprocess completed successfully
THREAD-47407946467072: Subprocess stdout (last 200 chars): ****************************************************************
SCRIPT EXECUTION FINISHED
*****************************************************************************
MRCC External Script Finished.

THREAD-47407946467072: Output file path: /home/pgao/mrcc_external/test2/Iterations/NUM_Iteration_1/task_atom_2_ixyz_2_down/energy_output.dat
THREAD-47407946467072: Already in original directory /home/pgao/mrcc_external/test2
PARALLEL EXECUTION: Task 'atom_2_ixyz_2_down' completed successfully with energy -76.241095650235
THREAD-47407942264576: Subprocess completed successfully
THREAD-47407942264576: Subprocess stdout (last 200 chars): ****************************************************************
SCRIPT EXECUTION FINISHED
*****************************************************************************
MRCC External Script Finished.

THREAD-47407942264576: Output file path: /home/pgao/mrcc_external/test2/Iterations/NUM_Iteration_1/task_atom_1_ixyz_3_down/energy_output.dat
THREAD-47407942264576: Already in original directory /home/pgao/mrcc_external/test2
PARALLEL EXECUTION: Task 'atom_1_ixyz_3_down' completed successfully with energy -76.241076772053
THREAD-47407940163328: Subprocess completed successfully
THREAD-47407940163328: Subprocess stdout (last 200 chars): ****************************************************************
SCRIPT EXECUTION FINISHED
*****************************************************************************
MRCC External Script Finished.

THREAD-47407940163328: Output file path: /home/pgao/mrcc_external/test2/Iterations/NUM_Iteration_1/task_atom_1_ixyz_3_up/energy_output.dat
THREAD-47407940163328: Already in original directory /home/pgao/mrcc_external/test2
PARALLEL EXECUTION: Task 'atom_1_ixyz_3_up' completed successfully with energy -76.241124678643
THREAD-47407938062080: Subprocess completed successfully
THREAD-47407938062080: Subprocess stdout (last 200 chars): ****************************************************************
SCRIPT EXECUTION FINISHED
*****************************************************************************
MRCC External Script Finished.

THREAD-47407938062080: Output file path: /home/pgao/mrcc_external/test2/Iterations/NUM_Iteration_1/task_central/energy_output.dat
THREAD-47407938062080: Already in original directory /home/pgao/mrcc_external/test2
PARALLEL EXECUTION: Task 'central' completed successfully with energy -76.241101577879
THREAD-47407948568320: Subprocess completed successfully
THREAD-47407948568320: Subprocess stdout (last 200 chars): ****************************************************************
SCRIPT EXECUTION FINISHED
*****************************************************************************
MRCC External Script Finished.

THREAD-47407948568320: Output file path: /home/pgao/mrcc_external/test2/Iterations/NUM_Iteration_1/task_atom_2_ixyz_3_up/energy_output.dat
THREAD-47407948568320: Already in original directory /home/pgao/mrcc_external/test2
PARALLEL EXECUTION: Task 'atom_2_ixyz_3_up' completed successfully with energy -76.24108919464
THREAD-47407944365824: Subprocess completed successfully
THREAD-47407944365824: Subprocess stdout (last 200 chars): ****************************************************************
SCRIPT EXECUTION FINISHED
*****************************************************************************
MRCC External Script Finished.

THREAD-47407944365824: Output file path: /home/pgao/mrcc_external/test2/Iterations/NUM_Iteration_1/task_atom_2_ixyz_3_down/energy_output.dat
THREAD-47407944365824: Already in original directory /home/pgao/mrcc_external/test2
PARALLEL EXECUTION: Task 'atom_2_ixyz_3_down' completed successfully with energy -76.241113147879
PARALLEL EXECUTION: Completed tasks: ['atom_1_ixyz_3_down', 'atom_1_ixyz_3_up', 'atom_2_ixyz_2_down', 'atom_2_ixyz_2_up', 'atom_2_ixyz_3_down', 'atom_2_ixyz_3_up', 'central']
PARALLEL EXECUTION: Failed tasks: []
PARALLEL EXECUTION: All 7 tasks completed successfully
TASK COMPLETION: Received 7 results
  - Task atom_2_ixyz_2_up: Energy = -76.241106124811
  - Task atom_2_ixyz_2_down: Energy = -76.241095650235
  - Task atom_1_ixyz_3_down: Energy = -76.241076772053
  - Task atom_1_ixyz_3_up: Energy = -76.241124678643
  - Task central: Energy = -76.241101577879
  - Task atom_2_ixyz_3_up: Energy = -76.24108919464
  - Task atom_2_ixyz_3_down: Energy = -76.241113147879
WARNING: Could not find point group information in log file
Returning minimal PointGroupInfo with empty operations (will use fallback)
ADVANCED SYMMETRY: Using Unknown point group
ADVANCED SYMMETRY: 0 operations found in log
ADVANCED SYMMETRY: Applying symmetry-aware gradient assembly
  (with automatic inference from forces if needed)
AUTO-DETECT: Found R_coords with RMSD = 1.73e-13 Bohr
Gradient transformation matrix R^T (original → central):
  [1. 0. 0.]
  [0. 1. 0.]
  [0. 0. 1.]

No explicit symmetry operations found in log
Attempting to infer operations from forces...

=== INFERRING SYMMETRY OPERATIONS FROM FORCES ===
Atoms with displacements: [0, 1]
Atoms to infer: [2]
Testing 60 transformation matrices...
Operation 2: Atom 1→2, RMSD=0.00e+00, Abelian
  Transformation matrix:
    [1. 0. 0.]
    [ 0. -1.  0.]
    [0. 0. 1.]
  Nuclear permutation: [0, 2, 1]
Inferred 2 operations (including identity)
Successfully inferred 2 operations from forces

=== MOLECULAR SYMMETRY CONSTRAINTS ===
SYMMETRY CONSTRAINT: Atom 1, Axis 1 = 0.000000000 (missing displacement)
SYMMETRY CONSTRAINT: Atom 1, Axis 2 = 0.000000000 (missing displacement)
SYMMETRY CONSTRAINT: Atom 2, Axis 1 = 0.000000000 (missing displacement)
SYMMETRY CONSTRAINT: Atom 3, Axis 1 = 0.000000000 (symmetry element)
SYMMETRY CONSTRAINT: Atom 3, Axis 1 = 0.000000000 (symmetry element)
SYMMETRY CONSTRAINT: Atom 3, Axis 2 = 0.000000000 (symmetry element)

=== DIRECT CALCULATIONS ===
DIRECT CALCULATION: Atom 1, Axis 3 = -0.01267554
DIRECT CALCULATION: Atom 2, Axis 2 = -0.00277145
DIRECT CALCULATION: Atom 2, Axis 3 = 0.00633775
SYMMETRY PROPAGATION: Atom 3 from Atom 2 via operation 2
  Source gradient: [ 0.         -0.00277145  0.00633775]
  Transformation matrix:
    [1. 0. 0.]
    [ 0. -1.  0.]
    [0. 0. 1.]
  Result gradient: [0.         0.00277145 0.00633775]

=== VALIDATION ===
CONSTRAINT VERIFIED: Atom 1, Axis 1 = 0.000000000
CONSTRAINT VERIFIED: Atom 1, Axis 2 = 0.000000000
CONSTRAINT VERIFIED: Atom 2, Axis 1 = 0.000000000
SYMMETRY EFFICIENCY: 33.3% computational reduction
SYMMETRY EFFICIENCY: 6/9 components calculated
NUMERICAL WORKFLOW: Gradient shape: (3, 3)
NUMERICAL WORKFLOW: Central energy: -76.241101577879
NUMERICAL WORKFLOW: Results stored for combination

================================================================================
COMBINING ANALYTICAL AND NUMERICAL RESULTS
================================================================================
Analytical gradients: 2
Numerical gradients: 1
Analytical energies: 2
Numerical energies: 1

MIXED MODE: Using unit coefficients for final combination (coefficients already applied)
  Original operations: [('coeff', 1.0), ('coeff', -1.0), ('coeff', 1.0)]
  Combination operations: [('coeff', 1.0), ('coeff', 1.0), ('coeff', 1.0)]

--- Combining Mixed Gradients ---
Analytical indices: [2, 3]
Numerical indices: [1]
Total gradient components: 3
Using linear combination based on scheme operations
  Operation: gradient[0] * 1.0
  Operation: gradient[1] * 1.0
  Operation: gradient[2] * 1.0
Combined gradient shape: (3, 3)
--- Gradient Combination Complete ---


--- Combining Mixed Energies ---
Analytical energies: [-0.090141149872, -0.090141149872]
Numerical energies: [-76.241101577879]
Reconstructed order: [-76.241101577879, -0.090141149872, -0.090141149872]
Using linear combination based on scheme operations
  Operation: energy[0] * 1.0 = -76.241101577879
  Operation: energy[1] * 1.0 = -0.090141149872
  Operation: energy[2] * 1.0 = -0.090141149872
Combined energy: -76.42138387762299
--- Energy Combination Complete ---


FINAL COMBINED RESULTS:
  Energy: -76.42138387762299
  Gradient shape: (3, 3)

DEBUG: Writing output to /home/pgao/scratch/Gau-274910.EOu
DEBUG: Current directory: /home/pgao/mrcc_external/test2
DEBUG: Central energy: -76.42138387762299
DEBUG: Gradient shape: (3, 3)
DEBUG: Output written successfully
DEBUG: File exists: True
SUCCESS: Mixed mode gradient calculation completed
Analytical workflow preserved in: /home/pgao/mrcc_external/test2/Iterations/AN_Iteration_1
Numerical workflow preserved in: /home/pgao/mrcc_external/test2/Iterations/NUM_Iteration_1
 Recovered energy= -76.4213838776     dipole=      0.000000000000      0.000000000000      0.000000000000
 Energy=    -76.4213839     NIter=   0.
 Dipole moment=       0.000000       0.000000       0.000000
 Leave Link  402 at Sun Dec 28 03:40:10 2025, MaxMem=  2147483648 cpu:               0.1 elap:              79.4
 (Enter /home/pgao/software/g16/l601.exe)
 Leave Link  601 at Sun Dec 28 03:40:10 2025, MaxMem=  2147483648 cpu:               0.0 elap:               0.0
 (Enter /home/pgao/software/g16/l716.exe)
 Dipole        = 0.00000000D+00 0.00000000D+00 0.00000000D+00
 ***** Axes restored to original set *****
 -------------------------------------------------------------------
 Center     Atomic                   Forces (Hartrees/Bohr)
 Number     Number              X              Y              Z
 -------------------------------------------------------------------
      1        8          -0.000000000   -0.000000000   -0.006843694
      2        1          -0.000000000   -0.002492140    0.003421862
      3        1           0.000000000    0.002492140    0.003421862
 -------------------------------------------------------------------
 Cartesian Forces:  Max     0.006843694 RMS     0.003030877
 Leave Link  716 at Sun Dec 28 03:40:10 2025, MaxMem=  2147483648 cpu:               0.0 elap:               0.0
 (Enter /home/pgao/software/g16/l9999.exe)
 1\1\GINC-LOCALHOST\Force\RExternal='CentralExt mrcc 16GB READ 4 1 prea
 mble.dat ending.dat parall 6'\ZDO\H2O1\PGAO\28-Dec-2025\0\\#p External
 ="CentralExt mrcc 16GB READ 4 1 preamble.dat ending.dat parall 6" forc
 e\\Water CCSD gradient\\0,1\O,0.,0.,0.11779\H,0.,0.75695,-0.47116\H,0.
 ,-0.75695,-0.47116\\Version=ES64L-G16RevA.03\HF=-76.4213839\RMSD=0.000
 e+00\RMSF=3.031e-03\Dipole=0.,0.,0.\PG=C02V [C2(O1),SGV(H2)]\\@


 MORNING PEOPLE ARE USUALLY ADMIRED AS EARLY BIRDS.
 RECALL BEN FRANKLIN'S APHORISM THAT THE EARLY BIRD GETS THE WORM.
 I IDENTIFY WITH THE WORM. --  CRAIG JAGGER, MINNEAPOLIS, KS.
 Job cpu time:       0 days  0 hours  0 minutes  0.5 seconds.
 Elapsed time:       0 days  0 hours  1 minutes 19.8 seconds.
 File lengths (MBytes):  RWF=      6 Int=      0 D2E=      0 Chk=      1 Scr=      1
 Normal termination of Gaussian 16 at Sun Dec 28 03:40:10 2025.
